qbf_easy_train/easy_3546_UNSAT.qdimacs
p cnf 39 115
a 2 13 15 0
e 1 3 4 5 6 7 8 9 10 11 12 14 16 17 18 19 20 21 22 23 24 25 26 27 28 29 30 31 32 33 34 35 36 37 38 39 0
2 -1 0
2 -1 0
1 -2 0
-5 3 0
-5 4 0
-3 -4 5 0
6 2 0
6 -5 0
-2 5 -6 0
7 -2 0
7 6 0
2 -6 -7 0
-1 8 -9 0
1 -8 -9 0
-1 -8 9 0
1 8 9 0
11 9 0
11 10 0
-9 -10 -11 0
5 -6 -12 0
-5 6 -12 0
5 6 12 0
-5 -6 12 0
13 11 0
13 12 0
-11 -12 -13 0
-14 -7 0
-14 -13 0
7 13 14 0
15 -16 -17 0
-15 16 -17 0
15 16 17 0
-15 -16 17 0
19 5 0
19 18 0
-5 -18 -19 0
-19 -15 -20 0
19 15 -20 0
-19 15 20 0
19 -15 20 0
-3 -8 -21 0
3 8 -21 0
-3 8 21 0
3 -8 21 0
-18 15 -22 0
18 -15 -22 0
-18 -15 22 0
18 15 22 0
-23 -21 0
-23 -22 0
21 22 23 0
-24 3 0
-24 1 0
-3 -1 24 0
25 2 0
25 5 0
-2 -5 -25 0
24 25 -26 0
-24 -25 -26 0
24 -25 26 0
-24 25 26 0
27 -23 0
27 -26 0
23 26 -27 0
-28 -20 0
-28 27 0
20 -27 28 0
-29 1 0
-29 -2 0
-1 2 29 0
-25 24 -30 0
25 -24 -30 0
-25 -24 30 0
25 24 30 0
-15 -24 -31 0
15 24 -31 0
-15 24 31 0
15 -24 31 0
-32 31 0
-32 15 0
-31 -15 32 0
-30 -32 -33 0
30 32 -33 0
-30 32 33 0
30 -32 33 0
34 29 0
34 33 0
-29 -33 -34 0
-35 -28 0
-35 34 0
28 -34 35 0
-36 -19 0
-36 1 0
19 -1 36 0
-37 35 0
-37 36 0
-35 -36 37 0
-38 -17 0
-38 37 0
17 -37 38 0
-14 38 -39 0
14 -38 -39 0
-14 -38 39 0
14 38 39 0
-26 -21 -18 32 13 0
6 35 -16 7 32 -15 -18 0
26 -5 -20 -19 0
11 4 -21 0
-23 10 35 21 25 34 -28 5 0
-12 14 6 10 0
-37 7 35 17 0
-34 -25 -29 -1 3 0
38 16 31 8 35 0
-24 16 13 0
39 0
