sat_easy_train/easy_3546_UNSAT.dimacs
p cnf 148 497
-3 1 0
-3 2 0
-1 -2 3 0
-5 3 0
-5 4 0
-3 -4 5 0
7 5 0
7 -6 0
-5 6 -7 0
-10 8 0
-10 -9 0
-8 9 10 0
11 10 0
11 8 0
-10 -8 -11 0
-12 11 0
-12 -11 0
16 14 0
16 -15 0
-14 15 -16 0
-16 -17 -18 0
16 17 -18 0
-16 17 18 0
16 -17 18 0
-13 18 -19 0
13 -18 -19 0
-13 -18 19 0
13 18 19 0
12 -19 -20 0
-12 19 -20 0
12 19 20 0
-12 -19 20 0
-13 17 -21 0
13 -17 -21 0
-13 -17 21 0
13 17 21 0
23 22 0
23 15 0
-22 -15 -23 0
24 -21 0
24 -23 0
21 23 -24 0
-20 24 -25 0
20 -24 -25 0
-20 -24 25 0
20 24 25 0
-26 -25 0
-26 -23 0
25 23 26 0
7 26 -27 0
-7 -26 -27 0
7 -26 27 0
-7 26 27 0
-28 -5 0
-28 -18 0
5 18 28 0
-30 -29 0
-30 6 0
29 -6 30 0
33 31 0
33 -32 0
-31 32 -33 0
-30 33 -34 0
30 -33 -34 0
-30 -33 34 0
30 33 34 0
-35 -28 0
-35 -34 0
28 34 35 0
27 35 -36 0
-27 -35 -36 0
27 -35 36 0
-27 35 36 0
-37 12 0
-37 16 0
-12 -16 37 0
37 11 -38 0
-37 -11 -38 0
37 -11 38 0
-37 11 38 0
-38 -28 -39 0
38 28 -39 0
-38 28 39 0
38 -28 39 0
-40 -33 0
-40 13 0
33 -13 40 0
-21 -40 -41 0
21 40 -41 0
-21 40 41 0
21 -40 41 0
-42 -39 0
-42 41 0
39 -41 42 0
42 -4 -43 0
-42 4 -43 0
42 4 43 0
-42 -4 43 0
-13 -37 -44 0
13 37 -44 0
-13 37 44 0
13 -37 44 0
45 -44 0
45 25 0
44 -25 -45 0
-46 -43 0
-46 -45 0
43 45 46 0
-47 36 0
-47 46 0
-36 -46 47 0
-32 -11 -48 0
32 11 -48 0
-32 11 48 0
32 -11 48 0
49 -48 0
49 19 0
48 -19 -49 0
-50 24 0
-50 -19 0
-24 19 50 0
-51 9 0
-51 -6 0
-9 6 51 0
53 -52 0
53 -18 0
52 18 -53 0
-54 11 0
-54 -53 0
-11 53 54 0
-51 54 -55 0
51 -54 -55 0
-51 -54 55 0
51 54 55 0
56 -50 0
56 -55 0
50 55 -56 0
-57 -49 0
-57 -56 0
49 56 57 0
-2 12 -58 0
2 -12 -58 0
-2 -12 58 0
2 12 58 0
-59 58 0
-59 -3 0
-58 3 59 0
-60 -23 0
-60 19 0
23 -19 60 0
61 -60 0
61 -55 0
60 55 -61 0
-62 59 0
-62 -61 0
-59 61 62 0
63 57 0
63 62 0
-57 -62 -63 0
-64 47 0
-64 -63 0
-47 63 64 0
65 23 0
65 9 0
-23 -9 -65 0
66 -4 0
66 2 0
4 -2 -66 0
2 -66 -67 0
-2 66 -67 0
2 66 67 0
-2 -66 67 0
51 67 -68 0
-51 -67 -68 0
51 -67 68 0
-51 67 68 0
69 -65 0
69 -68 0
65 68 -69 0
-64 69 -70 0
64 -69 -70 0
-64 -69 70 0
64 69 70 0
71 -41 0
71 -31 0
41 31 -71 0
-72 32 0
-72 71 0
-32 -71 72 0
73 72 0
73 53 0
-72 -53 -73 0
-74 -73 0
-74 52 0
73 -52 74 0
75 16 0
75 -15 0
-16 15 -75 0
-76 -75 0
-76 -30 0
75 30 76 0
77 -76 0
77 -6 0
76 6 -77 0
-78 67 0
-78 -1 0
-67 1 78 0
78 -29 -79 0
-78 29 -79 0
78 29 79 0
-78 -29 79 0
9 14 -80 0
-9 -14 -80 0
9 -14 80 0
-9 14 80 0
-81 -80 0
-81 5 0
80 -5 81 0
-82 -81 0
-82 19 0
81 -19 82 0
-83 6 0
-83 -48 0
-6 48 83 0
-84 -82 0
-84 83 0
82 -83 84 0
-85 11 0
-85 -53 0
-11 53 85 0
86 85 0
86 67 0
-85 -67 -86 0
87 -50 0
87 19 0
50 -19 -87 0
-88 -86 0
-88 -87 0
86 87 88 0
89 -84 0
89 88 0
84 -88 -89 0
90 -8 0
90 42 0
8 -42 -90 0
91 89 0
91 90 0
-89 -90 -91 0
-92 -10 0
-92 24 0
10 -24 92 0
-93 91 0
-93 -92 0
-91 92 93 0
94 79 0
94 -93 0
-79 93 -94 0
-95 77 0
-95 94 0
-77 -94 95 0
74 -95 -96 0
-74 95 -96 0
74 95 96 0
-74 -95 96 0
-48 -24 -97 0
48 24 -97 0
-48 24 97 0
48 -24 97 0
-98 80 0
-98 -5 0
-80 5 98 0
99 -68 0
99 -15 0
68 15 -99 0
100 98 0
100 -99 0
-98 99 -100 0
-101 -15 0
-101 81 0
15 -81 101 0
-103 -75 0
-103 102 0
75 -102 103 0
-104 -101 0
-104 -103 0
101 103 104 0
-105 -100 0
-105 -104 0
100 104 105 0
97 105 -106 0
-97 -105 -106 0
97 -105 106 0
-97 105 106 0
-107 96 0
-107 -106 0
-96 106 107 0
-108 -70 0
-108 -107 0
70 107 108 0
-109 -10 0
-109 -9 0
10 9 109 0
-110 -80 0
-110 31 0
80 -31 110 0
111 109 0
111 -110 0
-109 110 -111 0
-112 16 0
-112 29 0
-16 -29 112 0
-112 -2 -113 0
112 2 -113 0
-112 2 113 0
112 -2 113 0
114 -5 0
114 15 0
5 -15 -114 0
115 -42 0
115 114 0
42 -114 -115 0
116 113 0
116 -115 0
-113 115 -116 0
-117 -111 0
-117 -116 0
111 116 117 0
-28 -8 -118 0
28 8 -118 0
-28 8 118 0
28 -8 118 0
-119 52 0
-119 13 0
-52 -13 119 0
120 -30 0
120 23 0
30 -23 -120 0
121 120 0
121 11 0
-120 -11 -121 0
-119 -121 -122 0
119 121 -122 0
-119 121 122 0
119 -121 122 0
123 31 0
123 -19 0
-31 19 -123 0
-124 -122 0
-124 123 0
122 -123 124 0
-125 118 0
-125 124 0
-118 -124 125 0
-126 55 0
-126 42 0
-55 -42 126 0
-127 11 0
-127 -1 0
-11 1 127 0
-11 127 -128 0
11 -127 -128 0
-11 -127 128 0
11 127 128 0
126 -128 -129 0
-126 128 -129 0
126 128 129 0
-126 -128 129 0
125 129 -130 0
-125 -129 -130 0
125 -129 130 0
-125 129 130 0
-9 -23 -131 0
9 23 -131 0
-9 23 131 0
9 -23 131 0
-132 -131 0
-132 -50 0
131 50 132 0
-3 132 -133 0
3 -132 -133 0
-3 -132 133 0
3 132 133 0
-134 22 0
-134 16 0
-22 -16 134 0
135 11 0
135 134 0
-11 -134 -135 0
133 -135 -136 0
-133 135 -136 0
133 135 136 0
-133 -135 136 0
137 -130 0
137 -136 0
130 136 -137 0
-138 -15 0
-138 15 0
-138 21 -139 0
138 -21 -139 0
-138 -21 139 0
138 21 139 0
81 134 -140 0
-81 -134 -140 0
81 -134 140 0
-81 134 140 0
14 22 -141 0
-14 -22 -141 0
14 -22 141 0
-14 22 141 0
-142 131 0
-142 20 0
-131 -20 142 0
143 -141 0
143 142 0
141 -142 -143 0
140 -143 -144 0
-140 143 -144 0
140 143 144 0
-140 -143 144 0
145 139 0
145 144 0
-139 -144 -145 0
146 137 0
146 145 0
-137 -145 -146 0
147 117 0
147 -146 0
-117 146 -147 0
-148 -108 0
-148 147 0
108 -147 148 0
15 -60 100 -19 0
119 -33 0
32 33 27 -40 0
121 85 128 19 -4 17 0
-25 4 -114 -147 26 0
107 -135 72 35 -14 0
52 -118 16 0
74 -104 -92 -148 0
54 -90 -102 -61 0
-99 -79 0
123 -8 -140 0
-132 -133 65 -45 -140 0
-22 43 68 -76 -56 0
126 -7 58 48 0
53 -6 36 0
-131 71 -2 -59 -91 0
127 -137 -129 72 0
-108 -24 105 23 0
1 94 -125 -4 120 0
102 118 0
-147 67 0
-137 -77 0
95 94 -130 0
-41 -86 114 7 -24 -141 0
13 -129 38 126 9 -84 0
-20 141 -146 0
16 -148 89 -62 0
-143 -78 -119 -110 81 141 0
126 68 76 -66 109 0
-93 -51 -13 47 0
-21 40 -69 0
84 100 -11 0
39 -13 -90 14 0
-50 -32 137 68 -31 -71 0
-115 -131 -27 0
-101 8 92 0
23 58 -134 145 -35 -37 0
38 -47 88 -73 0
116 139 37 12 -6 -28 0
-63 -98 -143 81 29 0
77 -35 -13 24 0
128 -108 137 -117 -49 0
67 64 19 0
-98 120 102 -96 70 0
-62 -123 -121 -26 17 24 0
38 115 31 96 0
-45 -128 -73 -68 0
-79 116 114 -16 82 0
38 -127 68 -17 -56 29 0
-14 -138 130 0
76 147 -142 111 0
24 -120 57 0
-38 -33 0
-72 -111 0
-91 98 -21 0
-64 -85 -57 -131 107 -56 0
-70 -6 91 0
-78 -25 65 116 0
-102 -147 131 -129 146 0
49 24 -75 131 0
135 -40 0
-122 2 -56 20 -128 0
109 128 92 107 25 0
-3 -105 137 -114 0
-72 -142 -127 -32 -137 33 0
148 0
